files/upTests/__indexrange/indexesNeeded/0001.eprime
language ESSENCE' 1.0

find m: matrix indexed by [int(2, 4),
                           int(1, 3, 6..9),
                           int(1..3, 7..8, 9)] of int(0..20)
such that
    forAll v__0 : int(1, 3, 7..8, 9)
        . allDiff(m[2, v__0, ..]) /\ allDiff(m[4, v__0, ..])
